File : Instances/p61
Use 142 s

26419

0 0 1 0 1 0 0 1 0 0 1 1 0 1 0 0 1 0 0 1 1 0 0 0 1 0 0 1 0 0 
7 19 2 27 2 11 16 27 27 27 4 19 13 13 19 7 13 20 27 27 27 16 2 24 10 27 27 19 4 2 19 19 4 16 27 19 20 20 24 16 7 20 19 4 20 19 13 2 19 20 24 16 24 16 20 4 7 20 7 7 4 24 7 20 13 11 2 10 19 7 7 11 19 20 10 13 20 10 20 16 10 2 20 7 4 13 19 2 27 7 27 19 7 11 2 13 11 19 2 11 19 16 11 7 4 24 4 24 27 13 19 4 27 11 11 20 11 7 10 20 20 11 27 19 4 16 2 11 4 10 11 24 11 20 13 20 13 13 19 10 11 27 11 11 7 2 24 16 27 7 24 10 10 24 13 11 2 16 13 13 13 27 10 24 10 27 2 4 13 2 13 20 19 10 4 2 24 10 4 10 2 16 2 19 11 20 11 10 24 24 2 2 4 4 7 4 7 2 10 19 
